99993 100236 172 447
99993 100236 157 448
99993 100236 156 449
99993 100236 187 450
99993 100236 157 451
99993 100236 156 452
99993 100236 172 453
99993 100236 172 454
99993 100236 187 455
99993 100236 156 456
99993 100236 172 457
99993 100236 172 458
99993 100236 156 459
99993 100236 188 460
99993 100236 156 461
99993 100236 172 462
99993 100236 156 463
99993 100236 156 464
99993 100236 172 465
99993 100236 172 466
99993 100236 172 467
99993 100236 156 468
99993 100236 203 469
99993 100236 172 470
99993 100236 157 471
99993 100236 156 472
99993 100236 156 473
99993 100236 172 474
99993 100236 141 475
99993 100236 156 476
